288
184
318
246
174
282
168
247
150
154
142
207
225
175
124
94
135
316
175
129
173
113
150
240
139
491
208
228
74
183
251
291
114
294
192
158
122
130
160
154
112
289
159
183
170
166
228
145
321
176
239
157
162
237
106
297
321
288
136
216
126
123
214
0
234
141
149
107
193
423
216
190
407
150
151
425
566
152
106
167
336
414
142
192
138
182
390
236
143
143
271
87
188
75
139
210
142
141
109
108
